Minimize
 obj: 0 X_0_1
Subject To
 out_0:
  + 1 X_0_1 + 1 X_0_2 + 1 X_0_3 + 1 X_0_4
  = 1
 in_0:
  + 1 X_1_0 + 1 X_2_0 + 1 X_3_0 + 1 X_4_0
  = 1
 out_1:
  + 1 X_1_0 + 1 X_1_2 + 1 X_1_3 + 1 X_1_4
  = 1
 in_1:
  + 1 X_0_1 + 1 X_2_1 + 1 X_3_1 + 1 X_4_1
  = 1
 out_2:
  + 1 X_2_0 + 1 X_2_1 + 1 X_2_3 + 1 X_2_4
  = 1
 in_2:
  + 1 X_0_2 + 1 X_1_2 + 1 X_3_2 + 1 X_4_2
  = 1
 out_3:
  + 1 X_3_0 + 1 X_3_1 + 1 X_3_2 + 1 X_3_4
  = 1
 in_3:
  + 1 X_0_3 + 1 X_1_3 + 1 X_2_3 + 1 X_4_3
  = 1
 out_4:
  + 1 X_4_0 + 1 X_4_1 + 1 X_4_2 + 1 X_4_3
  = 1
 in_4:
  + 1 X_0_4 + 1 X_1_4 + 1 X_2_4 + 1 X_3_4
  = 1
 mtz_1_2:
  + 1 U1 - 1 U2 + 4 X_1_2
  <= 3
 mtz_1_3:
  + 1 U1 - 1 U3 + 4 X_1_3
  <= 3
 mtz_1_4:
  + 1 U1 - 1 U4 + 4 X_1_4
  <= 3
 mtz_2_1:
  + 1 U2 - 1 U1 + 4 X_2_1
  <= 3
 mtz_2_3:
  + 1 U2 - 1 U3 + 4 X_2_3
  <= 3
 mtz_2_4:
  + 1 U2 - 1 U4 + 4 X_2_4
  <= 3
 mtz_3_1:
  + 1 U3 - 1 U1 + 4 X_3_1
  <= 3
 mtz_3_2:
  + 1 U3 - 1 U2 + 4 X_3_2
  <= 3
 mtz_3_4:
  + 1 U3 - 1 U4 + 4 X_3_4
  <= 3
 mtz_4_1:
  + 1 U4 - 1 U1 + 4 X_4_1
  <= 3
 mtz_4_2:
  + 1 U4 - 1 U2 + 4 X_4_2
  <= 3
 mtz_4_3:
  + 1 U4 - 1 U3 + 4 X_4_3
  <= 3
 obj1:
  + 938 X_0_1 + 339 X_0_2 + 358 X_0_3 + 262 X_0_4 + 938 X_1_0 + 835 X_1_2 + 986 X_1_3 + 866 X_1_4
  + 339 X_2_0 + 835 X_2_1 + 150 X_2_3 + 80 X_2_4 + 358 X_3_0 + 986 X_3_1 + 150 X_3_2 + 146 X_3_4
  + 262 X_4_0 + 866 X_4_1 + 80 X_4_2 + 146 X_4_3
  <= 1
 obj2:
  + 593 X_0_1 + 869 X_0_2 + 983 X_0_3 + 827 X_0_4 + 593 X_1_0 + 317 X_1_2 + 930 X_1_3 + 316 X_1_4
  + 869 X_2_0 + 317 X_2_1 + 857 X_2_3 + 85 X_2_4 + 983 X_3_0 + 930 X_3_1 + 857 X_3_2 + 773 X_3_4
  + 827 X_4_0 + 316 X_4_1 + 85 X_4_2 + 773 X_4_3
  <= 2
 obj3:
  + 266 X_0_1 + 586 X_0_2 + 433 X_0_3 + 202 X_0_4 + 266 X_1_0 + 776 X_1_2 + 388 X_1_3 + 417 X_1_4
  + 586 X_2_0 + 776 X_2_1 + 560 X_2_3 + 384 X_2_4 + 433 X_3_0 + 388 X_3_1 + 560 X_3_2 + 384 X_3_4
  + 202 X_4_0 + 417 X_4_1 + 384 X_4_2 + 384 X_4_3
  <= 3
Bounds
 1 <= U1 <= 4
 1 <= U2 <= 4
 1 <= U3 <= 4
 1 <= U4 <= 4
Binary
 X_0_1
 X_0_2
 X_0_3
 X_0_4
 X_1_0
 X_1_2
 X_1_3
 X_1_4
 X_2_0
 X_2_1
 X_2_3
 X_2_4
 X_3_0
 X_3_1
 X_3_2
 X_3_4
 X_4_0
 X_4_1
 X_4_2
 X_4_3
End
